Minimize
	value: tt

Subject to
tt + 1000 s_1_1 > 0.0
tt - t_1_1 - 1001.967333 s_1_1  + 1.967333 s_1_7  > -994.964544
tt + 1000 s_2_1 > 0.0
tt - t_2_1 - 1002.109667 s_2_1  + 2.109667 s_2_7  > -986.372317
tt + 1000 s_1_2 > 0.0
tt - t_1_2 - 1001.967333 s_1_2  + 1.967333 s_1_7  > -995.784567
tt + 1000 s_2_2 > 0.0
tt - t_2_2 - 1002.109667 s_2_2  + 2.109667 s_2_7  > -990.032092
tt + 1000 s_1_3 > 0.0
tt - t_1_3 - 1001.967333 s_1_3  + 1.967333 s_1_7  > -996.535744
tt + 1000 s_2_3 > 0.0
tt - t_2_3 - 1002.109667 s_2_3  + 2.109667 s_2_7  > -991.828917
tt + 1000 s_1_4 > 0.0
tt - t_1_4 - 1001.990217 s_1_4  + 0.995108 s_1_1  + 0.995108 s_1_2  > -999.679100
tt + 1000 s_2_4 > 0.0
tt - t_2_4 - 1002.303809 s_2_4  + 1.151904 s_2_1  + 1.151904 s_2_2  > -998.547875
tt + 1000 s_1_5 > 0.0
tt - t_1_5 - 1002.962442 s_1_5  + 0.995108 s_1_1  + 1.967333 s_1_7  > -998.874844
tt + 1000 s_2_5 > 0.0
tt - t_2_5 - 1003.261571 s_2_5  + 1.151904 s_2_1  + 2.109667 s_2_7  > -994.387637
tt + 1000 s_1_6 > 0.0
tt - t_1_6 - 1003.980433 s_1_6  + 0.995108 s_1_3  + 0.995108 s_1_4  + 0.995108 s_1_2  + 0.995108 s_1_5  > -999.141500
tt + 1000 s_2_6 > 0.0
tt - t_2_6 - 1004.607617 s_2_6  + 1.151904 s_2_3  + 1.151904 s_2_4  + 1.151904 s_2_2  + 1.151904 s_2_5  > -996.122200
tt + 1000 s_1_7 > 0.0
tt - t_1_7 - 1000.000000 s_1_7  > -995.755556
tt + 1000 s_2_7 > 0.0
tt - t_2_7 - 1000.000000 s_2_7  > -997.105111
s_1_1 + s_2_1 = 1
s_1_2 + s_2_2 = 1
s_1_3 + s_2_3 = 1
s_1_4 + s_2_4 = 1
s_1_5 + s_2_5 = 1
s_1_6 + s_2_6 = 1
s_1_7 + s_2_7 = 1
s_1_1 + s_1_2 + 1000 r_1_1_2 >= 2
- s_1_1 - s_1_2 - 1000 r_1_1_2 >= -1001
t_1_1 - t_1_2 - 1000.000000 u_1_1_2 - 1.967333 s_1_2  + 1.967333 s_1_7  + 2000.000000 r_1_1_2 > -995.784567
s_2_1 + s_2_2 + 1000 r_2_1_2 >= 2
- s_2_1 - s_2_2 - 1000 r_2_1_2 >= -1001
t_2_1 - t_2_2 - 1000.000000 u_2_1_2 - 2.109667 s_2_2  + 2.109667 s_2_7  + 2000.000000 r_2_1_2 > -990.032092
s_1_1 + s_1_3 + 1000 r_1_1_3 >= 2
- s_1_1 - s_1_3 - 1000 r_1_1_3 >= -1001
t_1_1 - t_1_3 - 1000.000000 u_1_1_3 - 1.967333 s_1_3  + 1.967333 s_1_7  + 2000.000000 r_1_1_3 > -996.535744
s_2_1 + s_2_3 + 1000 r_2_1_3 >= 2
- s_2_1 - s_2_3 - 1000 r_2_1_3 >= -1001
t_2_1 - t_2_3 - 1000.000000 u_2_1_3 - 2.109667 s_2_3  + 2.109667 s_2_7  + 2000.000000 r_2_1_3 > -991.828917
t_1_4 - t_1_1 - 1001.967333 s_1_1  + 1.967333 s_1_7  > -994.964544
t_1_4 - t_2_1 - 1002.109667 s_2_1  + 2.109667 s_2_7  > -986.372317
t_2_4 - t_1_1 - 1001.967333 s_1_1  + 1.967333 s_1_7  > -994.964544
t_2_4 - t_2_1 - 1002.109667 s_2_1  + 2.109667 s_2_7  > -986.372317
t_1_5 - t_1_1 - 1001.967333 s_1_1  + 1.967333 s_1_7  > -994.964544
t_1_5 - t_2_1 - 1002.109667 s_2_1  + 2.109667 s_2_7  > -986.372317
t_2_5 - t_1_1 - 1001.967333 s_1_1  + 1.967333 s_1_7  > -994.964544
t_2_5 - t_2_1 - 1002.109667 s_2_1  + 2.109667 s_2_7  > -986.372317
t_1_1 - t_1_7 - 1000.000000 s_1_7  > -995.755556
t_1_1 - t_2_7 - 1000.000000 s_2_7  > -997.105111
t_2_1 - t_1_7 - 1000.000000 s_1_7  > -995.755556
t_2_1 - t_2_7 - 1000.000000 s_2_7  > -997.105111
s_1_2 + s_1_1 + 1000 r_1_1_2 >= 2
- s_1_2 - s_1_1 - 1000 r_1_1_2 >= -1001
t_1_2 - t_1_1 + 1000.000000 u_1_1_2 - 1.967333 s_1_1  + 1.967333 s_1_7  + 2000.000000 r_1_1_2 > 5.035456
s_2_2 + s_2_1 + 1000 r_2_1_2 >= 2
- s_2_2 - s_2_1 - 1000 r_2_1_2 >= -1001
t_2_2 - t_2_1 + 1000.000000 u_2_1_2 - 2.109667 s_2_1  + 2.109667 s_2_7  + 2000.000000 r_2_1_2 > 13.627683
s_1_2 + s_1_3 + 1000 r_1_2_3 >= 2
- s_1_2 - s_1_3 - 1000 r_1_2_3 >= -1001
t_1_2 - t_1_3 - 1000.000000 u_1_2_3 - 1.967333 s_1_3  + 1.967333 s_1_7  + 2000.000000 r_1_2_3 > -996.535744
s_2_2 + s_2_3 + 1000 r_2_2_3 >= 2
- s_2_2 - s_2_3 - 1000 r_2_2_3 >= -1001
t_2_2 - t_2_3 - 1000.000000 u_2_2_3 - 2.109667 s_2_3  + 2.109667 s_2_7  + 2000.000000 r_2_2_3 > -991.828917
t_1_4 - t_1_2 - 1001.967333 s_1_2  + 1.967333 s_1_7  > -995.784567
t_1_4 - t_2_2 - 1002.109667 s_2_2  + 2.109667 s_2_7  > -990.032092
t_2_4 - t_1_2 - 1001.967333 s_1_2  + 1.967333 s_1_7  > -995.784567
t_2_4 - t_2_2 - 1002.109667 s_2_2  + 2.109667 s_2_7  > -990.032092
s_1_2 + s_1_5 + 1000 r_1_2_5 >= 2
- s_1_2 - s_1_5 - 1000 r_1_2_5 >= -1001
t_1_2 - t_1_5 - 1000.000000 u_1_2_5 - 2.962442 s_1_5  + 0.995108 s_1_1  + 1.967333 s_1_7  + 2000.000000 r_1_2_5 > -998.874844
s_2_2 + s_2_5 + 1000 r_2_2_5 >= 2
- s_2_2 - s_2_5 - 1000 r_2_2_5 >= -1001
t_2_2 - t_2_5 - 1000.000000 u_2_2_5 - 3.261571 s_2_5  + 1.151904 s_2_1  + 2.109667 s_2_7  + 2000.000000 r_2_2_5 > -994.387637
t_1_6 - t_1_2 - 1001.967333 s_1_2  + 1.967333 s_1_7  > -995.784567
t_1_6 - t_2_2 - 1002.109667 s_2_2  + 2.109667 s_2_7  > -990.032092
t_2_6 - t_1_2 - 1001.967333 s_1_2  + 1.967333 s_1_7  > -995.784567
t_2_6 - t_2_2 - 1002.109667 s_2_2  + 2.109667 s_2_7  > -990.032092
t_1_2 - t_1_7 - 1000.000000 s_1_7  > -995.755556
t_1_2 - t_2_7 - 1000.000000 s_2_7  > -997.105111
t_2_2 - t_1_7 - 1000.000000 s_1_7  > -995.755556
t_2_2 - t_2_7 - 1000.000000 s_2_7  > -997.105111
s_1_3 + s_1_1 + 1000 r_1_1_3 >= 2
- s_1_3 - s_1_1 - 1000 r_1_1_3 >= -1001
t_1_3 - t_1_1 + 1000.000000 u_1_1_3 - 1.967333 s_1_1  + 1.967333 s_1_7  + 2000.000000 r_1_1_3 > 5.035456
s_2_3 + s_2_1 + 1000 r_2_1_3 >= 2
- s_2_3 - s_2_1 - 1000 r_2_1_3 >= -1001
t_2_3 - t_2_1 + 1000.000000 u_2_1_3 - 2.109667 s_2_1  + 2.109667 s_2_7  + 2000.000000 r_2_1_3 > 13.627683
s_1_3 + s_1_2 + 1000 r_1_2_3 >= 2
- s_1_3 - s_1_2 - 1000 r_1_2_3 >= -1001
t_1_3 - t_1_2 + 1000.000000 u_1_2_3 - 1.967333 s_1_2  + 1.967333 s_1_7  + 2000.000000 r_1_2_3 > 4.215433
s_2_3 + s_2_2 + 1000 r_2_2_3 >= 2
- s_2_3 - s_2_2 - 1000 r_2_2_3 >= -1001
t_2_3 - t_2_2 + 1000.000000 u_2_2_3 - 2.109667 s_2_2  + 2.109667 s_2_7  + 2000.000000 r_2_2_3 > 9.967908
s_1_3 + s_1_4 + 1000 r_1_3_4 >= 2
- s_1_3 - s_1_4 - 1000 r_1_3_4 >= -1001
t_1_3 - t_1_4 - 1000.000000 u_1_3_4 - 1.990217 s_1_4  + 0.995108 s_1_1  + 0.995108 s_1_2  + 2000.000000 r_1_3_4 > -999.679100
s_2_3 + s_2_4 + 1000 r_2_3_4 >= 2
- s_2_3 - s_2_4 - 1000 r_2_3_4 >= -1001
t_2_3 - t_2_4 - 1000.000000 u_2_3_4 - 2.303809 s_2_4  + 1.151904 s_2_1  + 1.151904 s_2_2  + 2000.000000 r_2_3_4 > -998.547875
s_1_3 + s_1_5 + 1000 r_1_3_5 >= 2
- s_1_3 - s_1_5 - 1000 r_1_3_5 >= -1001
t_1_3 - t_1_5 - 1000.000000 u_1_3_5 - 2.962442 s_1_5  + 0.995108 s_1_1  + 1.967333 s_1_7  + 2000.000000 r_1_3_5 > -998.874844
s_2_3 + s_2_5 + 1000 r_2_3_5 >= 2
- s_2_3 - s_2_5 - 1000 r_2_3_5 >= -1001
t_2_3 - t_2_5 - 1000.000000 u_2_3_5 - 3.261571 s_2_5  + 1.151904 s_2_1  + 2.109667 s_2_7  + 2000.000000 r_2_3_5 > -994.387637
t_1_6 - t_1_3 - 1001.967333 s_1_3  + 1.967333 s_1_7  > -996.535744
t_1_6 - t_2_3 - 1002.109667 s_2_3  + 2.109667 s_2_7  > -991.828917
t_2_6 - t_1_3 - 1001.967333 s_1_3  + 1.967333 s_1_7  > -996.535744
t_2_6 - t_2_3 - 1002.109667 s_2_3  + 2.109667 s_2_7  > -991.828917
t_1_3 - t_1_7 - 1000.000000 s_1_7  > -995.755556
t_1_3 - t_2_7 - 1000.000000 s_2_7  > -997.105111
t_2_3 - t_1_7 - 1000.000000 s_1_7  > -995.755556
t_2_3 - t_2_7 - 1000.000000 s_2_7  > -997.105111
s_1_4 + s_1_3 + 1000 r_1_3_4 >= 2
- s_1_4 - s_1_3 - 1000 r_1_3_4 >= -1001
t_1_4 - t_1_3 + 1000.000000 u_1_3_4 - 1.967333 s_1_3  + 1.967333 s_1_7  + 2000.000000 r_1_3_4 > 3.464256
s_2_4 + s_2_3 + 1000 r_2_3_4 >= 2
- s_2_4 - s_2_3 - 1000 r_2_3_4 >= -1001
t_2_4 - t_2_3 + 1000.000000 u_2_3_4 - 2.109667 s_2_3  + 2.109667 s_2_7  + 2000.000000 r_2_3_4 > 8.171083
s_1_4 + s_1_5 + 1000 r_1_4_5 >= 2
- s_1_4 - s_1_5 - 1000 r_1_4_5 >= -1001
t_1_4 - t_1_5 - 1000.000000 u_1_4_5 - 2.962442 s_1_5  + 0.995108 s_1_1  + 1.967333 s_1_7  + 2000.000000 r_1_4_5 > -998.874844
s_2_4 + s_2_5 + 1000 r_2_4_5 >= 2
- s_2_4 - s_2_5 - 1000 r_2_4_5 >= -1001
t_2_4 - t_2_5 - 1000.000000 u_2_4_5 - 3.261571 s_2_5  + 1.151904 s_2_1  + 2.109667 s_2_7  + 2000.000000 r_2_4_5 > -994.387637
t_1_6 - t_1_4 - 1001.990217 s_1_4  + 0.995108 s_1_1  + 0.995108 s_1_2  > -999.679100
t_1_6 - t_2_4 - 1002.303809 s_2_4  + 1.151904 s_2_1  + 1.151904 s_2_2  > -998.547875
t_2_6 - t_1_4 - 1001.990217 s_1_4  + 0.995108 s_1_1  + 0.995108 s_1_2  > -999.679100
t_2_6 - t_2_4 - 1002.303809 s_2_4  + 1.151904 s_2_1  + 1.151904 s_2_2  > -998.547875
s_1_5 + s_1_2 + 1000 r_1_2_5 >= 2
- s_1_5 - s_1_2 - 1000 r_1_2_5 >= -1001
t_1_5 - t_1_2 + 1000.000000 u_1_2_5 - 1.967333 s_1_2  + 1.967333 s_1_7  + 2000.000000 r_1_2_5 > 4.215433
s_2_5 + s_2_2 + 1000 r_2_2_5 >= 2
- s_2_5 - s_2_2 - 1000 r_2_2_5 >= -1001
t_2_5 - t_2_2 + 1000.000000 u_2_2_5 - 2.109667 s_2_2  + 2.109667 s_2_7  + 2000.000000 r_2_2_5 > 9.967908
s_1_5 + s_1_3 + 1000 r_1_3_5 >= 2
- s_1_5 - s_1_3 - 1000 r_1_3_5 >= -1001
t_1_5 - t_1_3 + 1000.000000 u_1_3_5 - 1.967333 s_1_3  + 1.967333 s_1_7  + 2000.000000 r_1_3_5 > 3.464256
s_2_5 + s_2_3 + 1000 r_2_3_5 >= 2
- s_2_5 - s_2_3 - 1000 r_2_3_5 >= -1001
t_2_5 - t_2_3 + 1000.000000 u_2_3_5 - 2.109667 s_2_3  + 2.109667 s_2_7  + 2000.000000 r_2_3_5 > 8.171083
s_1_5 + s_1_4 + 1000 r_1_4_5 >= 2
- s_1_5 - s_1_4 - 1000 r_1_4_5 >= -1001
t_1_5 - t_1_4 + 1000.000000 u_1_4_5 - 1.990217 s_1_4  + 0.995108 s_1_1  + 0.995108 s_1_2  + 2000.000000 r_1_4_5 > 0.320900
s_2_5 + s_2_4 + 1000 r_2_4_5 >= 2
- s_2_5 - s_2_4 - 1000 r_2_4_5 >= -1001
t_2_5 - t_2_4 + 1000.000000 u_2_4_5 - 2.303809 s_2_4  + 1.151904 s_2_1  + 1.151904 s_2_2  + 2000.000000 r_2_4_5 > 1.452125
t_1_6 - t_1_5 - 1002.962442 s_1_5  + 0.995108 s_1_1  + 1.967333 s_1_7  > -998.874844
t_1_6 - t_2_5 - 1003.261571 s_2_5  + 1.151904 s_2_1  + 2.109667 s_2_7  > -994.387637
t_2_6 - t_1_5 - 1002.962442 s_1_5  + 0.995108 s_1_1  + 1.967333 s_1_7  > -998.874844
t_2_6 - t_2_5 - 1003.261571 s_2_5  + 1.151904 s_2_1  + 2.109667 s_2_7  > -994.387637
t_1_5 - t_1_7 - 1000.000000 s_1_7  > -995.755556
t_1_5 - t_2_7 - 1000.000000 s_2_7  > -997.105111
t_2_5 - t_1_7 - 1000.000000 s_1_7  > -995.755556
t_2_5 - t_2_7 - 1000.000000 s_2_7  > -997.105111
Binary
s_1_1
s_2_1
s_1_2
s_2_2
s_1_3
s_2_3
s_1_4
s_2_4
s_1_5
s_2_5
s_1_6
s_2_6
s_1_7
s_2_7
u_1_1_2
r_1_1_2
u_2_1_2
r_2_1_2
u_1_1_3
r_1_1_3
u_2_1_3
r_2_1_3
u_1_2_3
r_1_2_3
u_2_2_3
r_2_2_3
u_1_2_5
r_1_2_5
u_2_2_5
r_2_2_5
u_1_3_4
r_1_3_4
u_2_3_4
r_2_3_4
u_1_3_5
r_1_3_5
u_2_3_5
r_2_3_5
u_1_4_5
r_1_4_5
u_2_4_5
r_2_4_5

End
